NAME: d100
COMMENT: Drilling problem (Reinelt)
TYPE: TSP
PRECEDENCE_CONSTRAINTS: 16
25 33 48 66 47 6 49 14 17 10 16 24 51 69 9 20
DIMENSION: 100
EDGE_WEIGHT_TYPE: EUC_2D
NODE_COORD_SECTION
0 0 0
1 551 996
2 627 996
3 703 996
4 703 47
5 627 47
6 551 47
7 881 352
8 932 352
9 957 352
10 983 352
11 8 352
12 33 352
13 313 123
14 287 98
15 287 996
16 313 996
17 465 996
18 516 996
19 592 996
20 592 98
21 516 98
22 465 98
23 567 123
24 592 148
25 567 174
26 541 174
27 491 174
28 440 174
29 465 199
30 414 225
31 440 225
32 491 225
33 516 225
34 592 250
35 465 250
36 440 250
37 389 250
38 541 275
39 160 123
40 160 225
41 262 301
42 287 301
43 338 301
44 414 301
45 491 301
46 541 301
47 643 301
48 668 326
49 618 326
50 567 326
51 516 326
52 465 326
53 414 326
54 338 326
55 313 326
56 237 326
57 237 352
58 313 352
59 338 352
60 414 352
61 465 352
62 694 352
63 618 377
64 516 377
65 414 377
66 338 377
67 313 377
68 237 377
69 357 390
70 237 402
71 313 402
72 338 402
73 414 402
74 465 402
75 567 402
76 592 402
77 618 402
78 694 428
79 668 428
80 541 428
81 440 428
82 414 428
83 338 428
84 262 428
85 237 453
86 338 453
87 414 453
88 465 453
89 491 453
90 668 453
91 694 453
92 618 479
93 592 479
94 567 479
95 516 479
96 440 479
97 414 479
98 338 479
99 262 479
EOF
